; PUSH cw_0 CALLDATASIZE SWAP1 POP => CALLDATASIZE
(set-option :produce-proofs true)
; 
(set-info :status unknown)
(declare-fun storage_t ((_ BitVec 256) (_ BitVec 256) Int (_ BitVec 256)) (_ BitVec 256))
(declare-fun w_0 () (_ BitVec 256))
(declare-fun storage_s ((_ BitVec 256) (_ BitVec 256) Int (_ BitVec 256)) (_ BitVec 256))
(declare-fun exc_halt_t (Int) Bool)
(declare-fun exc_halt_s (Int) Bool)
(declare-fun sc_t (Int) (_ BitVec 6))
(declare-fun stack_t ((_ BitVec 256) (_ BitVec 256) Int (_ BitVec 6)) (_ BitVec 256))
(declare-fun stack_s ((_ BitVec 256) (_ BitVec 256) Int (_ BitVec 6)) (_ BitVec 256))
(declare-fun sc_s (Int) (_ BitVec 6))
(declare-fun used_gas_t ((_ BitVec 256) (_ BitVec 256) Int) Int)
(declare-fun used_gas_s ((_ BitVec 256) (_ BitVec 256) Int) Int)
(assert
 (exists ((x_CALLDATASIZE (_ BitVec 256)) )(let (($x9066 (forall ((w (_ BitVec 256)) )(let ((?x11296 (storage_t w_0 x_CALLDATASIZE 1 w)))
 (let ((?x8071 (storage_s w_0 x_CALLDATASIZE 4 w)))
 (= ?x8071 ?x11296))))
 ))
 (let (($x4852 (exc_halt_t 1)))
 (let (($x9175 (exc_halt_s 4)))
 (let (($x2619 (= $x9175 $x4852)))
 (let (($x1073 (forall ((n (_ BitVec 6)) )(let ((?x9666 (sc_t 1)))
 (let (($x9963 (bvsle ?x9666 n)))
 (let ((?x3893 (stack_t w_0 x_CALLDATASIZE 1 n)))
 (let ((?x1552 (stack_s w_0 x_CALLDATASIZE 4 n)))
 (let (($x6956 (= ?x1552 ?x3893)))
 (or $x6956 $x9963)))))))
 ))
 (let ((?x9666 (sc_t 1)))
 (let ((?x9433 (sc_s 4)))
 (let (($x11619 (= ?x9433 ?x9666)))
 (let ((?x5003 (used_gas_t w_0 x_CALLDATASIZE 0)))
 (let ((?x2953 (used_gas_s w_0 x_CALLDATASIZE 0)))
 (let (($x568 (= ?x2953 ?x5003)))
 (let (($x232 (forall ((w (_ BitVec 256)) )(let ((?x5430 (storage_t w_0 x_CALLDATASIZE 0 w)))
 (let ((?x6819 (storage_s w_0 x_CALLDATASIZE 0 w)))
 (= ?x6819 ?x5430))))
 ))
 (let (($x56 (exc_halt_t 0)))
 (let (($x57 (exc_halt_s 0)))
 (let (($x58 (= $x57 $x56)))
 (let (($x8437 (forall ((n (_ BitVec 6)) )(let ((?x63 (sc_t 0)))
 (let (($x9079 (bvsle ?x63 n)))
 (let ((?x753 (stack_t w_0 x_CALLDATASIZE 0 n)))
 (let ((?x6032 (stack_s w_0 x_CALLDATASIZE 0 n)))
 (let (($x578 (= ?x6032 ?x753)))
 (or $x578 $x9079)))))))
 ))
 (let ((?x63 (sc_t 0)))
 (let ((?x72 (sc_s 0)))
 (let (($x73 (= ?x72 ?x63)))
 (let (($x3469 (= $x4852 (or $x56 (not (= ((_ extract 6 6) (bvadd (_ bv1 7) (concat (_ bv0 1) ?x63))) (_ bv0 1)))))))
 (let (($x7970 (forall ((w (_ BitVec 256)) )(let ((?x5430 (storage_t w_0 x_CALLDATASIZE 0 w)))
 (let ((?x11296 (storage_t w_0 x_CALLDATASIZE 1 w)))
 (= ?x11296 ?x5430))))
 ))
 (let (($x4454 (forall ((n (_ BitVec 6)) )(let ((?x63 (sc_t 0)))
 (let (($x9079 (bvsle ?x63 n)))
 (or (= (stack_t w_0 x_CALLDATASIZE 1 n) (stack_t w_0 x_CALLDATASIZE 0 n)) $x9079))))
 ))
 (let (($x9898 (= ?x9666 (bvadd (_ bv1 6) ?x63))))
 (let (($x7293 (= $x9175 (or (exc_halt_s 3) (not (bvsle (_ bv0 6) (bvadd (_ bv63 6) (sc_s 3))))))))
 (let (($x3544 (forall ((w (_ BitVec 256)) )(let ((?x6614 (storage_s w_0 x_CALLDATASIZE 3 w)))
 (let ((?x8071 (storage_s w_0 x_CALLDATASIZE 4 w)))
 (= ?x8071 ?x6614))))
 ))
 (let (($x2980 (forall ((n (_ BitVec 6)) )(let ((?x3851 (sc_s 3)))
 (let ((?x998 (bvadd (_ bv63 6) ?x3851)))
 (let (($x7884 (bvsle ?x998 n)))
 (or $x7884 (= (stack_s w_0 x_CALLDATASIZE 4 n) (stack_s w_0 x_CALLDATASIZE 3 n)))))))
 ))
 (let ((?x3851 (sc_s 3)))
 (let ((?x998 (bvadd (_ bv63 6) ?x3851)))
 (let (($x1889 (= ?x9433 ?x998)))
 (let (($x8930 (= (used_gas_s w_0 x_CALLDATASIZE 4) (+ 2 (used_gas_s w_0 x_CALLDATASIZE 3)))))
 (let (($x8103 (exc_halt_s 3)))
 (let (($x7113 (= $x8103 (or (exc_halt_s 2) (not (bvsle (_ bv0 6) (bvadd (_ bv62 6) (sc_s 2))))))))
 (let (($x7107 (forall ((w (_ BitVec 256)) )(let ((?x1820 (storage_s w_0 x_CALLDATASIZE 2 w)))
 (let ((?x6614 (storage_s w_0 x_CALLDATASIZE 3 w)))
 (= ?x6614 ?x1820))))
 ))
 (let (($x8415 (forall ((n (_ BitVec 6)) )(let ((?x2272 (sc_s 2)))
 (let ((?x9266 (bvadd (_ bv62 6) ?x2272)))
 (let (($x9051 (bvsle ?x9266 n)))
 (or (= (stack_s w_0 x_CALLDATASIZE 3 n) (stack_s w_0 x_CALLDATASIZE 2 n)) $x9051)))))
 ))
 (let ((?x2272 (sc_s 2)))
 (let (($x10118 (= ?x3851 ?x2272)))
 (let ((?x3921 (used_gas_s w_0 x_CALLDATASIZE 3)))
 (let (($x11352 (= (stack_s w_0 x_CALLDATASIZE 3 (bvadd (_ bv62 6) ?x3851)) (stack_s w_0 x_CALLDATASIZE 2 (bvadd (_ bv63 6) ?x2272)))))
 (let (($x11394 (= (stack_s w_0 x_CALLDATASIZE 3 ?x998) (stack_s w_0 x_CALLDATASIZE 2 (bvadd (_ bv62 6) ?x2272)))))
 (let (($x186 (not (= ((_ extract 6 6) (bvadd (_ bv1 7) (concat (_ bv0 1) (sc_s 1)))) (_ bv0 1)))))
 (let (($x8780 (exc_halt_s 1)))
 (let (($x10052 (exc_halt_s 2)))
 (let (($x6565 (= $x10052 (or $x8780 $x186))))
 (let (($x11174 (forall ((w (_ BitVec 256)) )(let ((?x9768 (storage_s w_0 x_CALLDATASIZE 1 w)))
 (let ((?x1820 (storage_s w_0 x_CALLDATASIZE 2 w)))
 (= ?x1820 ?x9768))))
 ))
 (let (($x4567 (forall ((n (_ BitVec 6)) )(let ((?x154 (sc_s 1)))
 (let (($x4976 (bvsle ?x154 n)))
 (or $x4976 (= (stack_s w_0 x_CALLDATASIZE 2 n) (stack_s w_0 x_CALLDATASIZE 1 n))))))
 ))
 (let (($x2595 (= ?x2272 (bvadd (_ bv1 6) (sc_s 1)))))
 (let ((?x8366 (used_gas_s w_0 x_CALLDATASIZE 2)))
 (let (($x5465 (= $x8780 (or $x57 (not (= ((_ extract 6 6) (bvadd (_ bv1 7) (concat (_ bv0 1) ?x72))) (_ bv0 1)))))))
 (let (($x9439 (forall ((w (_ BitVec 256)) )(let ((?x6819 (storage_s w_0 x_CALLDATASIZE 0 w)))
 (let ((?x9768 (storage_s w_0 x_CALLDATASIZE 1 w)))
 (= ?x9768 ?x6819))))
 ))
 (let (($x2171 (forall ((n (_ BitVec 6)) )(let ((?x72 (sc_s 0)))
 (let (($x4347 (bvsle ?x72 n)))
 (or $x4347 (= (stack_s w_0 x_CALLDATASIZE 1 n) (stack_s w_0 x_CALLDATASIZE 0 n))))))
 ))
 (let ((?x154 (sc_s 1)))
 (let (($x10888 (= ?x154 (bvadd (_ bv1 6) ?x72))))
 (let (($x5712 (forall ((w (_ BitVec 256)) )(let ((?x6819 (storage_s w_0 x_CALLDATASIZE 0 w)))
 (= ?x6819 (_ bv0 256))))
 ))
 (let (($x745 (= ?x2953 0)))
 (let (($x10995 (not $x57)))
 (let (($x4825 (= ?x72 (_ bv0 6))))
 (and $x4825 $x10995 $x745 $x5712 (= (stack_s w_0 x_CALLDATASIZE 1 ?x72) w_0) (= (used_gas_s w_0 x_CALLDATASIZE 1) (+ 3 ?x2953)) $x10888 $x2171 $x9439 $x5465 (= (stack_s w_0 x_CALLDATASIZE 2 ?x154) x_CALLDATASIZE) (= ?x8366 (+ 2 (used_gas_s w_0 x_CALLDATASIZE 1))) $x2595 $x4567 $x11174 $x6565 $x11394 $x11352 (= ?x3921 (+ 3 ?x8366)) $x10118 $x8415 $x7107 $x7113 $x8930 $x1889 $x2980 $x3544 $x7293 (= (stack_t w_0 x_CALLDATASIZE 1 ?x63) x_CALLDATASIZE) (= (used_gas_t w_0 x_CALLDATASIZE 1) (+ 2 ?x5003)) $x9898 $x4454 $x7970 $x3469 $x73 $x8437 $x58 $x232 $x568 (not (and $x11619 $x1073 $x2619 $x9066))))))))))))))))))))))))))))))))))))))))))))))))))))))))))))
 )
(check-sat)
(get-proof)
